Traveling Salesman Problem/TSP_generados/Aleatorio1620390942_10.tsp
NAME: Aleatorio1620390942_10.tsp
COMMENT: Randomly generated scenario
TYPE: TSP
DIMENSION: 10
EDGE_WEIGHT_TYPE: ATT
NODE_COORD_SECTION
1 10.72 5.63
2 48.53 41.24
3 34.61 49.86
4 17.07 29.03
5 33.31 19.89
6 31.24 29.79
7 35.08 42.84
8 45.21 18.25
9 25.87 24.28
10 29.33 15.04
