Traveling Salesman Problem/TSP_generados/Aleatorio1620390942_10.opt.tour
NAME: Aleatorio1620390942_10.opt.tour
COMMENT: Optimal solution for Aleatorio1620390942_10 (141.3209233762966)
TYPE: TOUR
DIMENSION: 10
TOUR_SECTION
1 4 9 6 7 3 2 8 5 10
-1
EOF
